(set-info :smt-lib-version 2.6)
(set-logic QF_LIA)
(set-info :source |
show equivalence of the following terms:
((16 * v4 + 32 * v5) + ((1 * v0 + 2 * v1) + (4 * v2 + 8 * v3)))

v0 + 2 * (v1 + 2 * (v2 + 2 * (v3 + 2 * (v4 + 2 * (v5)))))

in arithmetic modulo 2exp14
STATUS: unsat

generated by: Alberto Griggio <alberto.griggio@disi.unitn.it>
|)
(set-info :category "crafted")
(set-info :status unsat)
(declare-fun v0 () Int)
(declare-fun v1 () Int)
(declare-fun v2 () Int)
(declare-fun v3 () Int)
(declare-fun v4 () Int)
(declare-fun v5 () Int)
(declare-fun o_0 () Int)
(declare-fun s_1 () Int)
(declare-fun s_2 () Int)
(declare-fun o_1 () Int)
(declare-fun s_3 () Int)
(declare-fun s_4 () Int)
(declare-fun o_2 () Int)
(declare-fun o_3 () Int)
(declare-fun o_4 () Int)
(declare-fun o_5 () Int)
(declare-fun s_6 () Int)
(declare-fun o_6 () Int)
(declare-fun s_7 () Int)
(declare-fun o_7 () Int)
(declare-fun s_8 () Int)
(declare-fun o_8 () Int)
(declare-fun s_9 () Int)
(declare-fun o_9 () Int)
(assert (let ((?v_0 (* v5 2))) (let ((?v_7 (< ?v_0 16384)) (?v_8 (< ?v_0 32768))) (let ((?v_24 (+ (ite ?v_7 ?v_0 (ite ?v_8 (- ?v_0 16384) (- ?v_0 32768))) v4))) (let ((?v_25 (- ?v_24 (* o_5 16384))) (?v_38 (* v3 8))) (let ((?v_39 (- ?v_38 (* s_2 16384))) (?v_40 (* v2 4))) (let ((?v_41 (- ?v_40 (* s_1 16384)))) (let ((?v_36 (+ ?v_39 ?v_41))) (let ((?v_37 (- ?v_36 (* o_1 16384))) (?v_2 (* v1 2))) (let ((?v_42 (+ (ite (< ?v_2 16384) ?v_2 (ite (< ?v_2 32768) (- ?v_2 16384) (- ?v_2 32768))) v0))) (let ((?v_43 (- ?v_42 (* o_0 16384)))) (let ((?v_28 (+ ?v_37 ?v_43))) (let ((?v_29 (- ?v_28 (* o_3 16384))) (?v_32 (* v5 32))) (let ((?v_33 (- ?v_32 (* s_4 16384))) (?v_34 (* v4 16))) (let ((?v_35 (- ?v_34 (* s_3 16384)))) (let ((?v_30 (+ ?v_33 ?v_35))) (let ((?v_31 (- ?v_30 (* o_2 16384)))) (let ((?v_26 (+ ?v_29 ?v_31))) (let ((?v_27 (- ?v_26 (* o_4 16384))) (?v_19 (* 4 v5))) (let ((?v_22 (- (+ (ite ?v_7 ?v_19 (ite ?v_8 (- ?v_19 32768) (- ?v_19 65536))) (* 2 v4)) (* 32768 o_5)))) (let ((?v_23 (- ?v_22 (* s_6 16384)))) (let ((?v_20 (+ ?v_23 v3))) (let ((?v_21 (- ?v_20 (* o_6 16384))) (?v_14 (* 8 v5))) (let ((?v_17 (- (+ (- (- (+ (ite ?v_7 ?v_14 (ite ?v_8 (- ?v_14 65536) (- ?v_14 131072))) (* 4 v4)) (* 65536 o_5)) (* 32768 s_6)) (* 2 v3)) (* 32768 o_6)))) (let ((?v_18 (- ?v_17 (* s_7 16384)))) (let ((?v_15 (+ ?v_18 v2))) (let ((?v_16 (- ?v_15 (* o_7 16384))) (?v_9 (* 16 v5))) (let ((?v_12 (- (+ (- (- (+ (- (- (+ (ite ?v_7 ?v_9 (ite ?v_8 (- ?v_9 131072) (- ?v_9 262144))) (* 8 v4)) (* 131072 o_5)) (* 65536 s_6)) (* 4 v3)) (* 65536 o_6)) (* 32768 s_7)) (* 2 v2)) (* 32768 o_7)))) (let ((?v_13 (- ?v_12 (* s_8 16384)))) (let ((?v_10 (+ ?v_13 v1))) (let ((?v_11 (- ?v_10 (* o_8 16384))) (?v_1 (* 32 v5))) (let ((?v_5 (- (+ (- (- (+ (- (- (+ (- (- (+ (ite ?v_7 ?v_1 (ite ?v_8 (- ?v_1 262144) (- ?v_1 524288))) (* 16 v4)) (* 262144 o_5)) (* 131072 s_6)) (* 8 v3)) (* 131072 o_6)) (* 65536 s_7)) (* 4 v2)) (* 65536 o_7)) (* 32768 s_8)) (* 2 v1)) (* 32768 o_8)))) (let ((?v_6 (- ?v_5 (* s_9 16384)))) (let ((?v_3 (+ ?v_6 v0))) (let ((?v_4 (- ?v_3 (* o_9 16384)))) (and (not (= ?v_4 ?v_27)) (and (= (> ?v_3 16384) (= o_9 1)) (and (and (< ?v_4 16384) (<= 0 ?v_4)) (and (and (<= o_9 1) (<= 0 o_9)) (and (= (> ?v_5 16384) (>= s_9 1)) (and (and (< ?v_6 16384) (<= 0 ?v_6)) (and (and (< s_9 2) (<= 0 s_9)) (and (= (> ?v_10 16384) (= o_8 1)) (and (and (< ?v_11 16384) (<= 0 ?v_11)) (and (and (<= o_8 1) (<= 0 o_8)) (and (= (> ?v_12 16384) (>= s_8 1)) (and (and (< ?v_13 16384) (<= 0 ?v_13)) (and (and (< s_8 2) (<= 0 s_8)) (and (= (> ?v_15 16384) (= o_7 1)) (and (and (< ?v_16 16384) (<= 0 ?v_16)) (and (and (<= o_7 1) (<= 0 o_7)) (and (= (> ?v_17 16384) (>= s_7 1)) (and (and (< ?v_18 16384) (<= 0 ?v_18)) (and (and (< s_7 2) (<= 0 s_7)) (and (= (> ?v_20 16384) (= o_6 1)) (and (and (< ?v_21 16384) (<= 0 ?v_21)) (and (and (<= o_6 1) (<= 0 o_6)) (and (= (> ?v_22 16384) (>= s_6 1)) (and (and (< ?v_23 16384) (<= 0 ?v_23)) (and (and (< s_6 2) (<= 0 s_6)) (and (= (> ?v_24 16384) (= o_5 1)) (and (and (< ?v_25 16384) (<= 0 ?v_25)) (and (and (<= o_5 1) (<= 0 o_5)) (and (= (> ?v_26 16384) (= o_4 1)) (and (and (< ?v_27 16384) (<= 0 ?v_27)) (and (and (<= o_4 1) (<= 0 o_4)) (and (= (> ?v_28 16384) (= o_3 1)) (and (and (< ?v_29 16384) (<= 0 ?v_29)) (and (and (<= o_3 1) (<= 0 o_3)) (and (= (> ?v_30 16384) (= o_2 1)) (and (and (< ?v_31 16384) (<= 0 ?v_31)) (and (and (<= o_2 1) (<= 0 o_2)) (and (= (> ?v_32 16384) (>= s_4 1)) (and (and (< ?v_33 16384) (<= 0 ?v_33)) (and (and (< s_4 32) (<= 0 s_4)) (and (= (> ?v_34 16384) (>= s_3 1)) (and (and (< ?v_35 16384) (<= 0 ?v_35)) (and (and (< s_3 16) (<= 0 s_3)) (and (= (> ?v_36 16384) (= o_1 1)) (and (and (< ?v_37 16384) (<= 0 ?v_37)) (and (and (<= o_1 1) (<= 0 o_1)) (and (= (> ?v_38 16384) (>= s_2 1)) (and (and (< ?v_39 16384) (<= 0 ?v_39)) (and (and (< s_2 8) (<= 0 s_2)) (and (= (> ?v_40 16384) (>= s_1 1)) (and (and (< ?v_41 16384) (<= 0 ?v_41)) (and (and (< s_1 4) (<= 0 s_1)) (and (= (> ?v_42 16384) (= o_0 1)) (and (and (< ?v_43 16384) (<= 0 ?v_43)) (and (and (<= o_0 1) (<= 0 o_0)) (and (and (< v5 16384) (>= v5 0)) (and (and (< v4 16384) (>= v4 0)) (and (and (< v3 16384) (>= v3 0)) (and (and (< v2 16384) (>= v2 0)) (and (and (< v1 16384) (>= v1 0)) (and (< v0 16384) (>= v0 0)))))))))))))))))))))))))))))))))))))))))))))))))))))))))))))))))))))))))))))))))))))))))))))))))
(check-sat)
(exit)
